c "235796.clq"
p edge 150 584
e 1 5
e 1 7
e 1 16
e 1 31
e 1 36
e 1 41
e 1 66
e 1 67
e 1 69
e 1 77
e 1 128
e 1 133
e 1 143
e 2 5
e 2 6
e 2 9
e 2 13
e 2 19
e 2 32
e 2 56
e 2 60
e 2 65
e 2 112
e 2 118
e 2 121
e 3 5
e 3 6
e 3 7
e 3 11
e 3 12
e 3 18
e 3 22
e 3 34
e 3 38
e 3 40
e 3 43
e 3 46
e 3 52
e 3 70
e 3 98
e 3 112
e 3 135
e 3 138
e 3 139
e 3 147
e 4 5
e 4 6
e 4 7
e 4 8
e 4 9
e 4 10
e 4 11
e 4 12
e 4 14
e 4 18
e 4 19
e 4 21
e 4 23
e 4 27
e 4 28
e 4 29
e 4 35
e 4 49
e 4 58
e 4 64
e 4 66
e 4 72
e 4 86
e 4 93
e 4 96
e 4 102
e 4 117
e 4 142
e 4 147
e 5 6
e 5 7
e 5 8
e 5 9
e 5 10
e 5 12
e 5 13
e 5 14
e 5 16
e 5 22
e 5 23
e 5 27
e 5 35
e 5 37
e 5 38
e 5 39
e 5 44
e 5 46
e 5 47
e 5 50
e 5 51
e 5 56
e 5 59
e 5 70
e 5 74
e 5 76
e 5 80
e 5 81
e 5 83
e 5 87
e 5 105
e 5 111
e 5 149
e 6 8
e 6 12
e 6 13
e 6 20
e 6 22
e 6 23
e 6 24
e 6 26
e 6 42
e 6 50
e 6 51
e 6 52
e 6 62
e 6 70
e 6 72
e 6 81
e 6 82
e 6 92
e 6 96
e 6 97
e 6 106
e 6 109
e 6 116
e 6 117
e 6 128
e 6 130
e 6 134
e 7 8
e 7 9
e 7 10
e 7 11
e 7 14
e 7 15
e 7 17
e 7 21
e 7 24
e 7 35
e 7 43
e 7 45
e 7 47
e 7 48
e 7 53
e 7 54
e 7 55
e 7 56
e 7 57
e 7 58
e 7 59
e 7 61
e 7 76
e 7 79
e 7 80
e 7 86
e 7 92
e 7 94
e 7 95
e 7 96
e 7 113
e 7 120
e 7 122
e 7 123
e 7 131
e 7 133
e 7 138
e 7 146
e 7 149
e 8 10
e 8 11
e 8 17
e 8 28
e 8 29
e 8 35
e 8 41
e 8 54
e 8 89
e 8 107
e 8 127
e 8 130
e 8 143
e 9 24
e 9 25
e 9 26
e 9 36
e 9 44
e 9 47
e 9 48
e 9 50
e 9 57
e 9 66
e 9 88
e 9 103
e 9 107
e 9 140
e 9 148
e 10 13
e 10 15
e 10 25
e 10 27
e 10 30
e 10 31
e 10 34
e 10 38
e 10 39
e 10 44
e 10 52
e 10 64
e 10 68
e 10 118
e 10 127
e 10 128
e 10 149
e 11 17
e 11 33
e 11 60
e 11 71
e 11 106
e 11 140
e 11 148
e 12 14
e 12 15
e 12 16
e 12 22
e 12 23
e 12 28
e 12 30
e 12 32
e 12 33
e 12 34
e 12 40
e 12 42
e 12 45
e 12 54
e 12 55
e 12 57
e 12 63
e 12 68
e 12 110
e 12 113
e 12 129
e 13 17
e 13 19
e 13 31
e 13 37
e 13 73
e 13 82
e 13 91
e 13 144
e 14 15
e 14 16
e 14 19
e 14 20
e 14 24
e 14 25
e 14 44
e 14 51
e 14 60
e 14 89
e 14 98
e 14 100
e 14 102
e 14 108
e 14 136
e 14 139
e 15 18
e 15 20
e 15 21
e 15 32
e 15 42
e 15 45
e 15 52
e 15 53
e 15 65
e 15 69
e 15 75
e 15 90
e 15 94
e 15 99
e 15 110
e 15 113
e 15 120
e 15 134
e 16 18
e 16 20
e 16 26
e 16 64
e 16 65
e 16 112
e 17 30
e 17 93
e 18 37
e 18 50
e 18 53
e 18 63
e 18 97
e 19 21
e 19 27
e 19 41
e 19 61
e 19 83
e 19 94
e 19 146
e 19 150
e 20 30
e 20 38
e 20 39
e 20 56
e 20 76
e 20 83
e 20 98
e 20 115
e 20 122
e 20 132
e 22 33
e 22 64
e 22 70
e 22 76
e 22 77
e 22 105
e 22 113
e 22 142
e 22 144
e 23 25
e 23 28
e 23 29
e 23 34
e 23 55
e 23 79
e 23 103
e 23 111
e 23 147
e 24 57
e 24 62
e 24 74
e 24 111
e 25 26
e 25 36
e 25 39
e 25 79
e 25 81
e 25 84
e 25 87
e 25 127
e 26 29
e 26 31
e 26 40
e 26 42
e 26 48
e 26 54
e 26 58
e 26 63
e 26 67
e 26 72
e 27 32
e 27 33
e 27 48
e 27 62
e 27 84
e 27 87
e 27 112
e 27 125
e 27 142
e 28 37
e 28 53
e 28 95
e 29 61
e 29 77
e 29 135
e 29 138
e 29 145
e 29 150
e 30 119
e 31 43
e 31 73
e 31 83
e 31 85
e 31 89
e 31 120
e 31 125
e 31 148
e 32 51
e 32 63
e 32 82
e 32 84
e 32 92
e 32 109
e 32 121
e 32 127
e 32 131
e 32 140
e 33 78
e 33 114
e 33 116
e 34 36
e 34 40
e 34 41
e 34 45
e 34 66
e 34 74
e 34 93
e 34 95
e 34 104
e 34 114
e 35 49
e 35 59
e 35 108
e 35 122
e 35 131
e 35 136
e 35 145
e 36 71
e 36 116
e 36 119
e 37 137
e 38 46
e 38 47
e 38 59
e 38 78
e 38 107
e 38 123
e 39 67
e 39 78
e 39 85
e 39 88
e 39 115
e 39 124
e 40 43
e 40 60
e 40 71
e 40 73
e 40 92
e 40 93
e 40 105
e 40 107
e 40 140
e 41 102
e 42 69
e 42 86
e 43 49
e 43 73
e 43 87
e 43 91
e 43 99
e 43 110
e 43 111
e 43 130
e 44 74
e 44 99
e 44 121
e 44 124
e 44 128
e 45 46
e 45 49
e 46 88
e 46 118
e 47 55
e 47 62
e 47 85
e 47 121
e 47 142
e 47 148
e 48 102
e 48 116
e 49 94
e 49 106
e 50 68
e 50 88
e 50 100
e 50 114
e 50 115
e 50 125
e 50 147
e 51 72
e 51 75
e 52 99
e 53 77
e 53 91
e 53 122
e 54 58
e 54 80
e 54 101
e 54 104
e 54 124
e 54 126
e 55 78
e 55 85
e 55 97
e 55 103
e 55 126
e 55 139
e 56 65
e 56 75
e 56 96
e 56 100
e 56 129
e 57 71
e 57 108
e 57 126
e 57 141
e 57 146
e 58 61
e 58 80
e 58 95
e 59 69
e 59 75
e 59 98
e 59 119
e 59 120
e 59 129
e 59 141
e 61 119
e 61 144
e 62 68
e 62 104
e 62 144
e 63 109
e 63 137
e 64 67
e 64 84
e 64 101
e 64 104
e 66 79
e 66 90
e 66 105
e 67 103
e 67 136
e 69 124
e 71 90
e 71 91
e 71 110
e 72 108
e 74 81
e 74 90
e 75 82
e 75 86
e 75 123
e 75 134
e 78 106
e 78 146
e 79 132
e 79 150
e 80 131
e 81 89
e 81 100
e 81 118
e 83 132
e 84 114
e 84 138
e 84 139
e 85 126
e 85 150
e 87 132
e 87 135
e 88 109
e 89 137
e 90 101
e 91 143
e 92 97
e 94 130
e 97 133
e 98 101
e 98 136
e 99 115
e 102 141
e 103 117
e 104 125
e 108 133
e 109 117
e 109 129
e 113 123
e 126 134
e 126 135
e 129 137
e 129 145
e 130 141
e 132 149
e 134 143
e 139 145
